NAME : portgen-21-24
COMMENT : portgen N=21, seed=24
TYPE : TSP
DIMENSION : 21
EDGE_WEIGHT_TYPE : EUC_2D
NODE_COORD_SECTION
1 159940 722212
2 328681 794848
3 623088 802720
4 726880 617251
5 96599 372383
6 497407 536962
7 376760 822085
8 148143 217830
9 824592 404855
10 921735 936472
11 576112 501897
12 335671 905314
13 388376 33511
14 173970 52267
15 217723 835994
16 612645 717348
17 860398 537465
18 257432 324235
19 447955 197849
20 286234 614675
21 554433 267059
